language ESSENCE' 1.0

letting jobs = 102
letting horizon = 822
letting resourcesRenew = 2
letting resourcesNonrenew = 2
letting resourceLimits = [39, 44, 481, 485]
letting successors = [[2, 3, 4, 5, 6, 7, 8, 10, 11, 12, 13, 14, 17, 19, 28], [42, 35, 32, 31, 27, 26, 25, 23, 21, 16, 15, 9], [41, 36, 34, 27, 24, 23, 21, 20, 18], [46, 45, 43, 40, 36, 35, 32, 30, 25, 18], [42, 41, 38, 33, 30, 29, 27, 26, 22], [59, 47, 45, 44, 42, 41, 35, 33, 29, 27, 20], [59, 51, 47, 46, 44, 42, 38, 31, 30, 29, 27, 26], [51, 45, 42, 36, 32, 29, 25, 20], [59, 55, 53, 52, 51, 46, 45, 44, 43, 41, 40, 39, 38, 36, 30, 29], [59, 53, 52, 51, 50, 47, 45, 44, 38, 36, 29, 27], [59, 53, 51, 49, 48, 45, 44, 38, 37, 33, 30, 27], [57, 50, 46, 45, 43, 40, 36, 18], [54, 53, 52, 51, 50, 46, 45, 36, 29, 27], [54, 53, 52, 50, 49, 48, 44, 37, 32, 27], [63, 59, 57, 55, 54, 53, 52, 50, 47, 44, 41, 39, 29], [61, 59, 54, 53, 52, 50, 48, 46, 44, 43, 40, 39, 33], [60, 58, 54, 52, 50, 49, 48, 46, 42, 37, 36, 32], [55, 53, 52, 51, 47, 39, 38, 29], [61, 53, 50, 49, 46, 45, 36, 27], [66, 61, 60, 57, 55, 54, 52, 50, 46, 43, 39, 38, 37], [61, 59, 54, 53, 51, 50, 48, 45, 44, 38, 37, 33], [66, 65, 63, 61, 60, 59, 56, 52, 48, 46, 45, 43, 36, 35], [80, 65, 63, 62, 61, 60, 57, 56, 55, 54, 48, 45, 40, 39], [81, 72, 68, 66, 63, 62, 61, 60, 59, 58, 52, 49, 42, 37], [101, 80, 72, 68, 63, 62, 61, 53, 50, 49, 48, 47, 44], [72, 63, 62, 61, 58, 56, 55, 54, 49, 48, 45, 40], [71, 65, 64, 63, 60, 57, 56, 55, 43, 40, 39], [101, 81, 79, 75, 72, 68, 65, 64, 63, 62, 60, 58, 57, 55, 53, 52, 46], [80, 72, 71, 66, 62, 61, 60, 58, 49, 48, 37], [101, 80, 79, 75, 73, 72, 71, 70, 68, 64, 62, 61, 60, 58, 57, 54, 50], [101, 100, 81, 80, 79, 75, 74, 73, 72, 70, 68, 64, 63, 62, 60, 58, 57, 55], [100, 81, 80, 79, 74, 72, 70, 69, 68, 66, 64, 62, 61, 59, 55], [100, 80, 78, 74, 71, 68, 66, 64, 63, 62, 60, 58, 56], [81, 79, 78, 77, 75, 70, 65, 64, 63, 62, 53, 52], [101, 80, 75, 68, 64, 62, 53, 49], [100, 98, 94, 93, 79, 78, 76, 75, 74, 73, 71, 68, 67, 62], [100, 87, 77, 75, 74, 70, 65, 64, 56], [97, 80, 78, 74, 73, 71, 68, 64, 63, 62], [101, 98, 93, 78, 76, 74, 73, 72, 68, 58], [100, 99, 98, 96, 93, 89, 88, 81, 79, 75, 70, 69, 68], [101, 98, 97, 90, 87, 80, 77, 74, 73, 67, 58], [86, 79, 78, 77, 64, 53], [100, 99, 98, 97, 90, 88, 86, 80, 78, 77, 73, 58], [99, 96, 90, 75, 73, 71, 64, 60], [99, 97, 96, 73, 71, 70, 67, 64], [100, 98, 97, 96, 95, 84, 80, 78, 76, 73, 70, 67], [90, 89, 87, 75, 74, 64, 58], [98, 95, 93, 91, 81, 78, 75, 74, 70, 67], [99, 98, 97, 95, 94, 93, 91, 89, 88, 85, 83, 79, 78, 76, 70], [100, 97, 96, 95, 93, 91, 89, 87, 86, 81, 77, 76, 65], [101, 100, 96, 93, 87, 86, 84, 77, 73, 67], [96, 95, 94, 92, 91, 86, 80, 71, 67], [100, 99, 96, 93, 90, 76, 69, 67], [100, 99, 98, 97, 93, 92, 90, 89, 88, 87, 86, 85, 84, 82, 77], [98, 97, 95, 93, 90, 86, 84, 78, 67], [101, 94, 90, 88, 86, 85, 83, 82, 79, 73], [96, 94, 91, 90, 87, 86, 84, 77, 67], [96, 85, 83, 82, 69], [94, 88, 85, 76, 71], [92, 86, 76, 67], [97, 91, 90, 86, 85, 83, 78], [99, 95, 90, 87, 85, 83, 82], [99, 98, 89, 88, 87, 86, 84], [98, 95, 94, 93, 92, 76], [94, 90, 88, 85, 84, 82], [97, 92, 90, 86, 84, 82], [89, 88, 85, 83, 82], [91, 87, 84, 77], [95, 94, 91, 84], [92, 90, 86, 82], [87, 84, 83, 82], [91, 90, 89, 88], [92, 91, 89], [99, 96, 86], [97, 86], [82], [83], [87], [84], [93], [85], [102], [102], [102], [102], [102], [102], [102], [102], [102], [102], [102], [102], [102], [102], [102], [102], [102], [102], [102], [102], []]
letting durations = [[0], [1, 7, 8], [2, 3, 6], [5, 7, 8], [5, 7, 9], [1, 3, 10], [5, 6, 9], [4, 6, 9], [2, 5, 10], [5, 7, 10], [6, 7, 8], [1, 2, 5], [3, 4, 6], [6, 9, 9], [4, 9, 10], [6, 7, 9], [3, 4, 10], [4, 8, 10], [1, 5, 6], [3, 4, 5], [2, 3, 7], [1, 3, 9], [2, 6, 7], [4, 6, 7], [2, 3, 4], [2, 4, 6], [3, 5, 6], [4, 6, 8], [1, 4, 5], [3, 4, 10], [2, 8, 9], [3, 6, 8], [1, 3, 5], [4, 4, 6], [2, 7, 10], [3, 5, 7], [3, 4, 8], [8, 10, 10], [1, 8, 8], [1, 9, 9], [5, 9, 10], [3, 4, 7], [1, 6, 7], [1, 5, 9], [5, 6, 10], [1, 3, 10], [3, 8, 10], [1, 3, 10], [4, 5, 8], [1, 3, 5], [4, 4, 10], [2, 5, 8], [3, 9, 10], [2, 2, 6], [3, 5, 8], [2, 5, 6], [1, 5, 7], [6, 7, 10], [5, 10, 10], [1, 5, 6], [2, 4, 9], [3, 5, 10], [4, 6, 9], [1, 2, 3], [3, 4, 7], [1, 4, 10], [2, 7, 8], [1, 2, 9], [5, 8, 9], [6, 7, 9], [2, 5, 7], [2, 6, 9], [2, 3, 4], [3, 6, 9], [3, 4, 6], [2, 4, 8], [7, 8, 9], [1, 6, 10], [4, 6, 7], [6, 8, 9], [1, 3, 8], [1, 7, 10], [1, 4, 9], [4, 8, 10], [8, 9, 10], [2, 7, 7], [5, 6, 10], [5, 7, 10], [2, 6, 8], [3, 4, 5], [3, 6, 7], [3, 6, 9], [3, 5, 10], [3, 8, 9], [6, 7, 9], [3, 7, 9], [3, 4, 9], [6, 9, 10], [6, 6, 10], [2, 5, 10], [4, 7, 9], [0]]
letting resourceUsage = [[[0, 0, 0, 0]], [[5, 0, 6, 9], [3, 0, 4, 7], [0, 5, 3, 3]], [[0, 5, 3, 7], [0, 3, 2, 6], [1, 0, 2, 5]], [[2, 0, 6, 2], [2, 0, 4, 2], [0, 5, 3, 2]], [[0, 5, 3, 8], [2, 0, 2, 3], [2, 0, 2, 2]], [[0, 4, 7, 7], [0, 3, 3, 3], [4, 0, 2, 2]], [[0, 4, 6, 3], [3, 0, 5, 3], [0, 2, 4, 3]], [[5, 0, 9, 10], [0, 4, 9, 9], [4, 0, 8, 9]], [[4, 0, 3, 3], [4, 0, 2, 3], [0, 3, 1, 2]], [[0, 3, 10, 6], [0, 2, 8, 6], [0, 1, 7, 5]], [[5, 0, 6, 6], [0, 3, 5, 4], [0, 3, 3, 4]], [[0, 2, 7, 7], [0, 2, 4, 7], [1, 0, 3, 6]], [[0, 5, 6, 7], [0, 5, 3, 3], [4, 0, 2, 2]], [[0, 1, 7, 5], [4, 0, 6, 4], [0, 1, 6, 3]], [[1, 0, 5, 5], [1, 0, 5, 4], [1, 0, 4, 5]], [[3, 0, 5, 5], [0, 5, 5, 5], [1, 0, 3, 5]], [[0, 4, 7, 3], [0, 3, 4, 3], [0, 2, 2, 3]], [[0, 5, 3, 3], [0, 4, 2, 2], [2, 0, 2, 2]], [[3, 0, 5, 2], [0, 4, 3, 1], [1, 0, 2, 1]], [[0, 2, 5, 9], [0, 2, 5, 8], [1, 0, 4, 7]], [[4, 0, 8, 10], [3, 0, 5, 8], [3, 0, 5, 7]], [[0, 2, 10, 6], [0, 2, 7, 3], [0, 2, 3, 3]], [[2, 0, 7, 8], [0, 2, 7, 5], [1, 0, 6, 4]], [[5, 0, 2, 9], [4, 0, 1, 4], [4, 0, 1, 1]], [[0, 4, 7, 2], [1, 0, 6, 2], [0, 2, 5, 1]], [[0, 1, 6, 10], [0, 1, 5, 9], [4, 0, 4, 9]], [[0, 2, 5, 3], [1, 0, 2, 3], [0, 2, 1, 2]], [[4, 0, 10, 9], [0, 4, 7, 7], [4, 0, 6, 7]], [[0, 4, 8, 7], [0, 3, 7, 5], [0, 3, 4, 5]], [[4, 0, 9, 8], [3, 0, 8, 7], [0, 2, 6, 6]], [[2, 0, 5, 1], [0, 4, 5, 2], [0, 4, 5, 1]], [[2, 0, 7, 3], [0, 3, 4, 3], [1, 0, 2, 3]], [[1, 0, 6, 7], [1, 0, 4, 4], [0, 2, 3, 4]], [[0, 4, 6, 6], [4, 0, 6, 6], [0, 3, 4, 5]], [[0, 3, 7, 9], [4, 0, 6, 7], [3, 0, 4, 7]], [[2, 0, 6, 2], [1, 0, 6, 2], [1, 0, 4, 2]], [[5, 0, 7, 8], [0, 2, 5, 4], [3, 0, 5, 1]], [[2, 0, 8, 7], [0, 2, 8, 6], [2, 0, 8, 3]], [[4, 0, 8, 6], [0, 2, 7, 5], [4, 0, 3, 2]], [[0, 5, 7, 8], [0, 2, 5, 4], [2, 0, 2, 2]], [[3, 0, 10, 6], [2, 0, 8, 5], [0, 1, 5, 5]], [[2, 0, 4, 3], [2, 0, 3, 3], [2, 0, 2, 3]], [[0, 5, 8, 10], [3, 0, 6, 10], [3, 0, 4, 10]], [[4, 0, 5, 7], [0, 4, 4, 4], [0, 4, 4, 3]], [[0, 4, 6, 9], [0, 4, 4, 8], [2, 0, 4, 8]], [[0, 3, 8, 4], [0, 3, 5, 3], [3, 0, 4, 2]], [[2, 0, 7, 7], [1, 0, 4, 7], [0, 2, 1, 6]], [[0, 3, 5, 9], [0, 2, 4, 8], [1, 0, 3, 6]], [[4, 0, 7, 8], [2, 0, 6, 8], [0, 1, 2, 7]], [[3, 0, 3, 8], [2, 0, 3, 8], [0, 1, 2, 8]], [[0, 4, 7, 8], [1, 0, 6, 6], [0, 2, 5, 6]], [[3, 0, 8, 4], [3, 0, 6, 3], [2, 0, 3, 2]], [[0, 4, 8, 9], [0, 3, 6, 5], [1, 0, 6, 4]], [[4, 0, 9, 8], [0, 5, 4, 6], [3, 0, 3, 4]], [[0, 4, 9, 5], [4, 0, 6, 3], [4, 0, 5, 2]], [[0, 2, 4, 7], [0, 2, 2, 6], [0, 2, 2, 5]], [[0, 5, 5, 1], [0, 5, 4, 1], [2, 0, 4, 1]], [[0, 4, 2, 8], [1, 0, 1, 8], [0, 2, 1, 6]], [[0, 4, 9, 8], [3, 0, 9, 7], [0, 2, 8, 7]], [[4, 0, 10, 8], [4, 0, 10, 7], [0, 2, 10, 7]], [[1, 0, 9, 2], [1, 0, 7, 2], [1, 0, 4, 2]], [[3, 0, 4, 9], [2, 0, 2, 7], [0, 1, 2, 7]], [[5, 0, 6, 8], [0, 2, 4, 7], [3, 0, 3, 7]], [[0, 4, 9, 9], [0, 4, 7, 5], [1, 0, 1, 4]], [[0, 4, 7, 2], [0, 4, 5, 2], [3, 0, 5, 2]], [[4, 0, 8, 6], [0, 5, 7, 4], [0, 5, 6, 3]], [[0, 3, 9, 8], [0, 3, 6, 8], [5, 0, 5, 7]], [[2, 0, 5, 5], [0, 4, 4, 4], [0, 4, 4, 3]], [[0, 4, 10, 10], [0, 3, 9, 10], [1, 0, 9, 10]], [[1, 0, 8, 3], [1, 0, 6, 3], [0, 5, 5, 3]], [[0, 5, 8, 9], [0, 4, 4, 6], [0, 3, 4, 4]], [[4, 0, 5, 5], [0, 3, 4, 3], [3, 0, 4, 1]], [[0, 3, 5, 3], [0, 3, 5, 2], [0, 2, 5, 3]], [[0, 5, 8, 3], [0, 3, 7, 3], [4, 0, 4, 3]], [[5, 0, 10, 7], [4, 0, 9, 5], [3, 0, 8, 3]], [[0, 4, 4, 5], [3, 0, 2, 2], [0, 2, 2, 2]], [[0, 3, 1, 1], [3, 0, 1, 1], [0, 2, 1, 1]], [[4, 0, 10, 8], [3, 0, 9, 8], [0, 1, 7, 6]], [[3, 0, 7, 10], [0, 4, 7, 7], [1, 0, 7, 6]], [[0, 4, 8, 6], [3, 0, 8, 6], [3, 0, 7, 6]], [[0, 5, 7, 7], [4, 0, 6, 7], [3, 0, 5, 6]], [[0, 2, 8, 8], [0, 2, 5, 7], [2, 0, 4, 6]], [[3, 0, 10, 6], [1, 0, 9, 6], [1, 0, 7, 6]], [[5, 0, 8, 7], [0, 4, 6, 3], [0, 4, 4, 2]], [[5, 0, 4, 8], [0, 3, 3, 7], [1, 0, 3, 5]], [[0, 1, 5, 2], [3, 0, 5, 1], [0, 1, 4, 1]], [[4, 0, 8, 3], [3, 0, 8, 3], [3, 0, 8, 2]], [[0, 1, 6, 8], [0, 1, 5, 8], [5, 0, 4, 8]], [[1, 0, 7, 9], [1, 0, 5, 8], [1, 0, 1, 7]], [[0, 3, 5, 9], [0, 3, 4, 8], [0, 3, 4, 7]], [[1, 0, 8, 3], [0, 2, 7, 3], [0, 2, 3, 2]], [[0, 5, 9, 10], [0, 4, 9, 8], [0, 3, 8, 6]], [[0, 1, 10, 9], [0, 1, 8, 7], [2, 0, 4, 5]], [[0, 4, 6, 7], [2, 0, 5, 4], [2, 0, 1, 3]], [[0, 5, 6, 1], [2, 0, 4, 1], [2, 0, 2, 1]], [[0, 3, 6, 6], [1, 0, 6, 5], [0, 2, 6, 5]], [[0, 4, 10, 7], [3, 0, 10, 4], [0, 2, 10, 4]], [[0, 2, 9, 10], [3, 0, 8, 5], [2, 0, 8, 1]], [[3, 0, 8, 9], [0, 3, 6, 9], [2, 0, 5, 8]], [[5, 0, 8, 8], [0, 3, 5, 8], [4, 0, 5, 8]], [[1, 0, 8, 10], [1, 0, 6, 8], [1, 0, 5, 6]], [[0, 0, 0, 0]]]
